p cnf 1113 2956
-129 -15 0
-129 -16 0
129 15 16 0
-130 -14 0
-130 129 0
130 14 -129 0
-131 -13 0
-131 130 0
131 13 -130 0
-132 -12 0
-132 131 0
132 12 -131 0
-133 -11 0
-133 132 0
133 11 -132 0
-134 -10 0
-134 133 0
134 10 -133 0
-135 -9 0
-135 134 0
135 9 -134 0
-136 -127 0
-136 128 0
136 127 -128 0
-137 -127 0
-137 -136 0
137 127 136 0
-138 -125 0
-138 -126 0
138 125 126 0
-139 137 0
-139 138 0
139 -137 -138 0
-140 -123 0
-140 -124 0
140 123 124 0
-141 -121 0
-141 -122 0
141 121 122 0
-142 140 0
-142 141 0
142 -140 -141 0
-143 139 0
-143 142 0
143 -139 -142 0
-144 -115 0
-144 -116 0
144 115 116 0
-145 -114 0
-145 144 0
145 114 -144 0
-146 -119 0
-146 -120 0
146 119 120 0
-147 -118 0
-147 146 0
147 118 -146 0
-148 -117 0
-148 147 0
148 117 -147 0
-149 -113 0
-149 148 0
149 113 -148 0
-150 145 0
-150 149 0
150 -145 -149 0
-151 143 0
-151 150 0
151 -143 -150 0
-152 -103 0
-152 -104 0
152 103 104 0
-153 -102 0
-153 152 0
153 102 -152 0
-154 -101 0
-154 153 0
154 101 -153 0
-155 -100 0
-155 154 0
155 100 -154 0
-156 -111 0
-156 -112 0
156 111 112 0
-157 -110 0
-157 156 0
157 110 -156 0
-158 -109 0
-158 157 0
158 109 -157 0
-159 -108 0
-159 158 0
159 108 -158 0
-160 -107 0
-160 159 0
160 107 -159 0
-161 -106 0
-161 160 0
161 106 -160 0
-162 -105 0
-162 161 0
162 105 -161 0
-163 -99 0
-163 162 0
163 99 -162 0
-164 -98 0
-164 163 0
164 98 -163 0
-165 -97 0
-165 164 0
165 97 -164 0
-166 155 0
-166 165 0
166 -155 -165 0
-167 151 0
-167 166 0
167 -151 -166 0
-168 -79 0
-168 -80 0
168 79 80 0
-169 -78 0
-169 168 0
169 78 -168 0
-170 -77 0
-170 169 0
170 77 -169 0
-171 -76 0
-171 170 0
171 76 -170 0
-172 -75 0
-172 171 0
172 75 -171 0
-173 -74 0
-173 172 0
173 74 -172 0
-174 -73 0
-174 173 0
174 73 -173 0
-175 -72 0
-175 174 0
175 72 -174 0
-176 -95 0
-176 -96 0
176 95 96 0
-177 -94 0
-177 176 0
177 94 -176 0
-178 -93 0
-178 177 0
178 93 -177 0
-179 -92 0
-179 178 0
179 92 -178 0
-180 -91 0
-180 179 0
180 91 -179 0
-181 -90 0
-181 180 0
181 90 -180 0
-182 -89 0
-182 181 0
182 89 -181 0
-183 -88 0
-183 182 0
183 88 -182 0
-184 -87 0
-184 183 0
184 87 -183 0
-185 -86 0
-185 184 0
185 86 -184 0
-186 -85 0
-186 185 0
186 85 -185 0
-187 -84 0
-187 186 0
187 84 -186 0
-188 -83 0
-188 187 0
188 83 -187 0
-189 -82 0
-189 188 0
189 82 -188 0
-190 -81 0
-190 189 0
190 81 -189 0
-191 -71 0
-191 190 0
191 71 -190 0
-192 -70 0
-192 191 0
192 70 -191 0
-193 -69 0
-193 192 0
193 69 -192 0
-194 -68 0
-194 193 0
194 68 -193 0
-195 -67 0
-195 194 0
195 67 -194 0
-196 -66 0
-196 195 0
196 66 -195 0
-197 -65 0
-197 196 0
197 65 -196 0
-198 175 0
-198 197 0
198 -175 -197 0
-199 167 0
-199 198 0
199 -167 -198 0
-200 -1 0
-200 199 0
200 1 -199 0
-201 135 0
-201 200 0
201 -135 -200 0
-202 -4 0
-202 201 0
202 4 -201 0
-203 -3 0
-203 202 0
203 3 -202 0
-204 -7 0
-204 -8 0
204 7 8 0
-205 -6 0
-205 204 0
205 6 -204 0
-206 -5 0
-206 205 0
206 5 -205 0
-207 -31 0
-207 -32 0
207 31 32 0
-208 -30 0
-208 207 0
208 30 -207 0
-209 -29 0
-209 208 0
209 29 -208 0
-210 -28 0
-210 209 0
210 28 -209 0
-211 -27 0
-211 210 0
211 27 -210 0
-212 -26 0
-212 211 0
212 26 -211 0
-213 -25 0
-213 212 0
213 25 -212 0
-214 -24 0
-214 213 0
214 24 -213 0
-215 -23 0
-215 214 0
215 23 -214 0
-216 -22 0
-216 215 0
216 22 -215 0
-217 -21 0
-217 216 0
217 21 -216 0
-218 -20 0
-218 217 0
218 20 -217 0
-219 -19 0
-219 218 0
219 19 -218 0
-220 -18 0
-220 219 0
220 18 -219 0
-221 -17 0
-221 220 0
221 17 -220 0
-222 -63 0
-222 -64 0
222 63 64 0
-223 -62 0
-223 222 0
223 62 -222 0
-224 -61 0
-224 223 0
224 61 -223 0
-225 -60 0
-225 224 0
225 60 -224 0
-226 -59 0
-226 225 0
226 59 -225 0
-227 -58 0
-227 226 0
227 58 -226 0
-228 -57 0
-228 227 0
228 57 -227 0
-229 -56 0
-229 228 0
229 56 -228 0
-230 -55 0
-230 229 0
230 55 -229 0
-231 -54 0
-231 230 0
231 54 -230 0
-232 -53 0
-232 231 0
232 53 -231 0
-233 -52 0
-233 232 0
233 52 -232 0
-234 -51 0
-234 233 0
234 51 -233 0
-235 -50 0
-235 234 0
235 50 -234 0
-236 -49 0
-236 235 0
236 49 -235 0
-237 -48 0
-237 236 0
237 48 -236 0
-238 -47 0
-238 237 0
238 47 -237 0
-239 -46 0
-239 238 0
239 46 -238 0
-240 -45 0
-240 239 0
240 45 -239 0
-241 -44 0
-241 240 0
241 44 -240 0
-242 -43 0
-242 241 0
242 43 -241 0
-243 -42 0
-243 242 0
243 42 -242 0
-244 -41 0
-244 243 0
244 41 -243 0
-245 -40 0
-245 244 0
245 40 -244 0
-246 -39 0
-246 245 0
246 39 -245 0
-247 -38 0
-247 246 0
247 38 -246 0
-248 -37 0
-248 247 0
248 37 -247 0
-249 -36 0
-249 248 0
249 36 -248 0
-250 -35 0
-250 249 0
250 35 -249 0
-251 -34 0
-251 250 0
251 34 -250 0
-252 -33 0
-252 251 0
252 33 -251 0
-253 221 0
-253 252 0
253 -221 -252 0
-254 206 0
-254 253 0
254 -206 -253 0
-255 -2 0
-255 254 0
255 2 -254 0
-256 203 0
-256 255 0
256 -203 -255 0
-257 198 0
-257 -252 0
257 -198 252 0
-258 167 0
-258 -257 0
258 -167 257 0
-259 166 0
-259 -190 0
259 -166 190 0
-260 151 0
-260 -259 0
260 -151 259 0
-261 -78 0
-261 -79 0
261 78 79 0
-262 -77 0
-262 261 0
262 77 -261 0
-263 -76 0
-263 262 0
263 76 -262 0
-264 -75 0
-264 263 0
264 75 -263 0
-265 -74 0
-265 264 0
265 74 -264 0
-266 -73 0
-266 265 0
266 73 -265 0
-267 -72 0
-267 266 0
267 72 -266 0
-268 -71 0
-268 267 0
268 71 -267 0
-269 -70 0
-269 268 0
269 70 -268 0
-270 -69 0
-270 269 0
270 69 -269 0
-271 -68 0
-271 270 0
271 68 -270 0
-272 -67 0
-272 271 0
272 67 -271 0
-273 -66 0
-273 272 0
273 66 -272 0
-274 -65 0
-274 273 0
274 65 -273 0
-275 260 0
-275 -274 0
275 -260 274 0
-276 80 0
-276 190 0
276 -80 -190 0
-277 166 0
-277 -276 0
277 -166 276 0
-278 151 0
-278 -277 0
278 -151 277 0
-279 274 0
-279 278 0
279 -274 -278 0
-280 -275 0
-280 -279 0
280 275 279 0
-281 -236 0
-281 280 0
281 236 -280 0
-282 236 0
-282 -260 0
282 -236 260 0
-283 -281 0
-283 -282 0
283 281 282 0
-284 -47 0
-284 -48 0
284 47 48 0
-285 -46 0
-285 284 0
285 46 -284 0
-286 -45 0
-286 285 0
286 45 -285 0
-287 -44 0
-287 286 0
287 44 -286 0
-288 -43 0
-288 287 0
288 43 -287 0
-289 -42 0
-289 288 0
289 42 -288 0
-290 -41 0
-290 289 0
290 41 -289 0
-291 -40 0
-291 290 0
291 40 -290 0
-292 -39 0
-292 291 0
292 39 -291 0
-293 -38 0
-293 292 0
293 38 -292 0
-294 -37 0
-294 293 0
294 37 -293 0
-295 -36 0
-295 294 0
295 36 -294 0
-296 -35 0
-296 295 0
296 35 -295 0
-297 -34 0
-297 296 0
297 34 -296 0
-298 -33 0
-298 297 0
298 33 -297 0
-299 283 0
-299 -298 0
299 -283 298 0
-300 -280 0
-300 298 0
300 280 -298 0
-301 -299 0
-301 -300 0
301 299 300 0
-302 -221 0
-302 301 0
302 221 -301 0
-303 221 0
-303 -283 0
303 -221 283 0
-304 -302 0
-304 -303 0
304 302 303 0
-305 150 0
-305 -162 0
305 -150 162 0
-306 143 0
-306 -305 0
306 -143 305 0
-307 -102 0
-307 -103 0
307 102 103 0
-308 -101 0
-308 307 0
308 101 -307 0
-309 -100 0
-309 308 0
309 100 -308 0
-310 -99 0
-310 309 0
310 99 -309 0
-311 -98 0
-311 310 0
311 98 -310 0
-312 -97 0
-312 311 0
312 97 -311 0
-313 306 0
-313 -312 0
313 -306 312 0
-314 104 0
-314 162 0
314 -104 -162 0
-315 150 0
-315 -314 0
315 -150 314 0
-316 143 0
-316 -315 0
316 -143 315 0
-317 312 0
-317 316 0
317 -312 -316 0
-318 -313 0
-318 -317 0
318 313 317 0
-319 -182 0
-319 318 0
319 182 -318 0
-320 182 0
-320 -306 0
320 -182 306 0
-321 -319 0
-321 -320 0
321 319 320 0
-322 -87 0
-322 -88 0
322 87 88 0
-323 -86 0
-323 322 0
323 86 -322 0
-324 -85 0
-324 323 0
324 85 -323 0
-325 -84 0
-325 324 0
325 84 -324 0
-326 -83 0
-326 325 0
326 83 -325 0
-327 -82 0
-327 326 0
327 82 -326 0
-328 -81 0
-328 327 0
328 81 -327 0
-329 321 0
-329 -328 0
329 -321 328 0
-330 -318 0
-330 328 0
330 318 -328 0
-331 -329 0
-331 -330 0
331 329 330 0
-332 -174 0
-332 331 0
332 174 -331 0
-333 174 0
-333 -321 0
333 -174 321 0
-334 -332 0
-334 -333 0
334 332 333 0
-335 -71 0
-335 -72 0
335 71 72 0
-336 -70 0
-336 335 0
336 70 -335 0
-337 -69 0
-337 336 0
337 69 -336 0
-338 -68 0
-338 337 0
338 68 -337 0
-339 -67 0
-339 338 0
339 67 -338 0
-340 -66 0
-340 339 0
340 66 -339 0
-341 -65 0
-341 340 0
341 65 -340 0
-342 334 0
-342 -341 0
342 -334 341 0
-343 -331 0
-343 341 0
343 331 -341 0
-344 -342 0
-344 -343 0
344 342 343 0
-345 -228 0
-345 344 0
345 228 -344 0
-346 228 0
-346 -334 0
346 -228 334 0
-347 -345 0
-347 -346 0
347 345 346 0
-348 -55 0
-348 -56 0
348 55 56 0
-349 -54 0
-349 348 0
349 54 -348 0
-350 -53 0
-350 349 0
350 53 -349 0
-351 -52 0
-351 350 0
351 52 -350 0
-352 -51 0
-352 351 0
352 51 -351 0
-353 -50 0
-353 352 0
353 50 -352 0
-354 -49 0
-354 353 0
354 49 -353 0
-355 347 0
-355 -354 0
355 -347 354 0
-356 -344 0
-356 354 0
356 344 -354 0
-357 -355 0
-357 -356 0
357 355 356 0
-358 -290 0
-358 357 0
358 290 -357 0
-359 290 0
-359 -347 0
359 -290 347 0
-360 -358 0
-360 -359 0
360 358 359 0
-361 -39 0
-361 -40 0
361 39 40 0
-362 -38 0
-362 361 0
362 38 -361 0
-363 -37 0
-363 362 0
363 37 -362 0
-364 -36 0
-364 363 0
364 36 -363 0
-365 -35 0
-365 364 0
365 35 -364 0
-366 -34 0
-366 365 0
366 34 -365 0
-367 -33 0
-367 366 0
367 33 -366 0
-368 360 0
-368 -367 0
368 -360 367 0
-369 -357 0
-369 367 0
369 357 -367 0
-370 -368 0
-370 -369 0
370 368 369 0
-371 -213 0
-371 370 0
371 213 -370 0
-372 213 0
-372 -360 0
372 -213 360 0
-373 -371 0
-373 -372 0
373 371 372 0
-374 -23 0
-374 -24 0
374 23 24 0
-375 -22 0
-375 374 0
375 22 -374 0
-376 -21 0
-376 375 0
376 21 -375 0
-377 -20 0
-377 376 0
377 20 -376 0
-378 -19 0
-378 377 0
378 19 -377 0
-379 -18 0
-379 378 0
379 18 -378 0
-380 -17 0
-380 379 0
380 17 -379 0
-381 373 0
-381 -380 0
381 -373 380 0
-382 -370 0
-382 380 0
382 370 -380 0
-383 -381 0
-383 -382 0
383 381 382 0
-384 -135 0
-384 383 0
384 135 -383 0
-385 135 0
-385 -373 0
385 -135 373 0
-386 -384 0
-386 -385 0
386 384 385 0
-387 142 0
-387 -148 0
387 -142 148 0
-388 139 0
-388 -387 0
388 -139 387 0
-389 -114 0
-389 -115 0
389 114 115 0
-390 -113 0
-390 389 0
390 113 -389 0
-391 388 0
-391 -390 0
391 -388 390 0
-392 116 0
-392 148 0
392 -116 -148 0
-393 142 0
-393 -392 0
393 -142 392 0
-394 139 0
-394 -393 0
394 -139 393 0
-395 390 0
-395 394 0
395 -390 -394 0
-396 -391 0
-396 -395 0
396 391 395 0
-397 -158 0
-397 396 0
397 158 -396 0
-398 158 0
-398 -388 0
398 -158 388 0
-399 -397 0
-399 -398 0
399 397 398 0
-400 -107 0
-400 -108 0
400 107 108 0
-401 -106 0
-401 400 0
401 106 -400 0
-402 -105 0
-402 401 0
402 105 -401 0
-403 399 0
-403 -402 0
403 -399 402 0
-404 -396 0
-404 402 0
404 396 -402 0
-405 -403 0
-405 -404 0
405 403 404 0
-406 -154 0
-406 405 0
406 154 -405 0
-407 154 0
-407 -399 0
407 -154 399 0
-408 -406 0
-408 -407 0
408 406 407 0
-409 -99 0
-409 -100 0
409 99 100 0
-410 -98 0
-410 409 0
410 98 -409 0
-411 -97 0
-411 410 0
411 97 -410 0
-412 408 0
-412 -411 0
412 -408 411 0
-413 -405 0
-413 411 0
413 405 -411 0
-414 -412 0
-414 -413 0
414 412 413 0
-415 -178 0
-415 414 0
415 178 -414 0
-416 178 0
-416 -408 0
416 -178 408 0
-417 -415 0
-417 -416 0
417 415 416 0
-418 -91 0
-418 -92 0
418 91 92 0
-419 -90 0
-419 418 0
419 90 -418 0
-420 -89 0
-420 419 0
420 89 -419 0
-421 417 0
-421 -420 0
421 -417 420 0
-422 -414 0
-422 420 0
422 414 -420 0
-423 -421 0
-423 -422 0
423 421 422 0
-424 -324 0
-424 423 0
424 324 -423 0
-425 324 0
-425 -417 0
425 -324 417 0
-426 -424 0
-426 -425 0
426 424 425 0
-427 -83 0
-427 -84 0
427 83 84 0
-428 -82 0
-428 427 0
428 82 -427 0
-429 -81 0
-429 428 0
429 81 -428 0
-430 426 0
-430 -429 0
430 -426 429 0
-431 -423 0
-431 429 0
431 423 -429 0
-432 -430 0
-432 -431 0
432 430 431 0
-433 -170 0
-433 432 0
433 170 -432 0
-434 170 0
-434 -426 0
434 -170 426 0
-435 -433 0
-435 -434 0
435 433 434 0
-436 -75 0
-436 -76 0
436 75 76 0
-437 -74 0
-437 436 0
437 74 -436 0
-438 -73 0
-438 437 0
438 73 -437 0
-439 435 0
-439 -438 0
439 -435 438 0
-440 -432 0
-440 438 0
440 432 -438 0
-441 -439 0
-441 -440 0
441 439 440 0
-442 -337 0
-442 441 0
442 337 -441 0
-443 337 0
-443 -435 0
443 -337 435 0
-444 -442 0
-444 -443 0
444 442 443 0
-445 -67 0
-445 -68 0
445 67 68 0
-446 -66 0
-446 445 0
446 66 -445 0
-447 -65 0
-447 446 0
447 65 -446 0
-448 444 0
-448 -447 0
448 -444 447 0
-449 -441 0
-449 447 0
449 441 -447 0
-450 -448 0
-450 -449 0
450 448 449 0
-451 -224 0
-451 450 0
451 224 -450 0
-452 224 0
-452 -444 0
452 -224 444 0
-453 -451 0
-453 -452 0
453 451 452 0
-454 -59 0
-454 -60 0
454 59 60 0
-455 -58 0
-455 454 0
455 58 -454 0
-456 -57 0
-456 455 0
456 57 -455 0
-457 453 0
-457 -456 0
457 -453 456 0
-458 -450 0
-458 456 0
458 450 -456 0
-459 -457 0
-459 -458 0
459 457 458 0
-460 -350 0
-460 459 0
460 350 -459 0
-461 350 0
-461 -453 0
461 -350 453 0
-462 -460 0
-462 -461 0
462 460 461 0
-463 -51 0
-463 -52 0
463 51 52 0
-464 -50 0
-464 463 0
464 50 -463 0
-465 -49 0
-465 464 0
465 49 -464 0
-466 462 0
-466 -465 0
466 -462 465 0
-467 -459 0
-467 465 0
467 459 -465 0
-468 -466 0
-468 -467 0
468 466 467 0
-469 -286 0
-469 468 0
469 286 -468 0
-470 286 0
-470 -462 0
470 -286 462 0
-471 -469 0
-471 -470 0
471 469 470 0
-472 -43 0
-472 -44 0
472 43 44 0
-473 -42 0
-473 472 0
473 42 -472 0
-474 -41 0
-474 473 0
474 41 -473 0
-475 471 0
-475 -474 0
475 -471 474 0
-476 -468 0
-476 474 0
476 468 -474 0
-477 -475 0
-477 -476 0
477 475 476 0
-478 -363 0
-478 477 0
478 363 -477 0
-479 363 0
-479 -471 0
479 -363 471 0
-480 -478 0
-480 -479 0
480 478 479 0
-481 -35 0
-481 -36 0
481 35 36 0
-482 -34 0
-482 481 0
482 34 -481 0
-483 -33 0
-483 482 0
483 33 -482 0
-484 480 0
-484 -483 0
484 -480 483 0
-485 -477 0
-485 483 0
485 477 -483 0
-486 -484 0
-486 -485 0
486 484 485 0
-487 -209 0
-487 486 0
487 209 -486 0
-488 209 0
-488 -480 0
488 -209 480 0
-489 -487 0
-489 -488 0
489 487 488 0
-490 -27 0
-490 -28 0
490 27 28 0
-491 -26 0
-491 490 0
491 26 -490 0
-492 -25 0
-492 491 0
492 25 -491 0
-493 489 0
-493 -492 0
493 -489 492 0
-494 -486 0
-494 492 0
494 486 -492 0
-495 -493 0
-495 -494 0
495 493 494 0
-496 -376 0
-496 495 0
496 376 -495 0
-497 376 0
-497 -489 0
497 -376 489 0
-498 -496 0
-498 -497 0
498 496 497 0
-499 -19 0
-499 -20 0
499 19 20 0
-500 -18 0
-500 499 0
500 18 -499 0
-501 -17 0
-501 500 0
501 17 -500 0
-502 498 0
-502 -501 0
502 -498 501 0
-503 -495 0
-503 501 0
503 495 -501 0
-504 -502 0
-504 -503 0
504 502 503 0
-505 -131 0
-505 504 0
505 131 -504 0
-506 131 0
-506 -498 0
506 -131 498 0
-507 -505 0
-507 -506 0
507 505 506 0
-508 -11 0
-508 -12 0
508 11 12 0
-509 -10 0
-509 508 0
509 10 -508 0
-510 -9 0
-510 509 0
510 9 -509 0
-511 507 0
-511 -510 0
511 -507 510 0
-512 -504 0
-512 510 0
512 504 -510 0
-513 -511 0
-513 -512 0
513 511 512 0
-514 -206 0
-514 513 0
514 206 -513 0
-515 206 0
-515 -507 0
515 -206 507 0
-516 -514 0
-516 -515 0
516 514 515 0
-517 -126 0
-517 128 0
517 126 -128 0
-518 127 0
-518 128 0
518 -127 -128 0
-519 127 0
-519 -518 0
519 -127 518 0
-520 126 0
-520 -519 0
520 -126 519 0
-521 -517 0
-521 -520 0
521 517 520 0
-522 -124 0
-522 -521 0
522 124 521 0
-523 -125 0
-523 -519 0
523 125 519 0
-524 125 0
-524 -521 0
524 -125 521 0
-525 -523 0
-525 -524 0
525 523 524 0
-526 124 0
-526 -525 0
526 -124 525 0
-527 -522 0
-527 -526 0
527 522 526 0
-528 -122 0
-528 -527 0
528 122 527 0
-529 -123 0
-529 -525 0
529 123 525 0
-530 123 0
-530 -527 0
530 -123 527 0
-531 -529 0
-531 -530 0
531 529 530 0
-532 122 0
-532 -531 0
532 -122 531 0
-533 -528 0
-533 -532 0
533 528 532 0
-534 -120 0
-534 -533 0
534 120 533 0
-535 -121 0
-535 -531 0
535 121 531 0
-536 121 0
-536 -533 0
536 -121 533 0
-537 -535 0
-537 -536 0
537 535 536 0
-538 120 0
-538 -537 0
538 -120 537 0
-539 -534 0
-539 -538 0
539 534 538 0
-540 -118 0
-540 -539 0
540 118 539 0
-541 -119 0
-541 -537 0
541 119 537 0
-542 119 0
-542 -539 0
542 -119 539 0
-543 -541 0
-543 -542 0
543 541 542 0
-544 118 0
-544 -543 0
544 -118 543 0
-545 -540 0
-545 -544 0
545 540 544 0
-546 -116 0
-546 -545 0
546 116 545 0
-547 -117 0
-547 -543 0
547 117 543 0
-548 117 0
-548 -545 0
548 -117 545 0
-549 -547 0
-549 -548 0
549 547 548 0
-550 116 0
-550 -549 0
550 -116 549 0
-551 -546 0
-551 -550 0
551 546 550 0
-552 -114 0
-552 -551 0
552 114 551 0
-553 -115 0
-553 -549 0
553 115 549 0
-554 115 0
-554 -551 0
554 -115 551 0
-555 -553 0
-555 -554 0
555 553 554 0
-556 114 0
-556 -555 0
556 -114 555 0
-557 -552 0
-557 -556 0
557 552 556 0
-558 -112 0
-558 -557 0
558 112 557 0
-559 -113 0
-559 -555 0
559 113 555 0
-560 113 0
-560 -557 0
560 -113 557 0
-561 -559 0
-561 -560 0
561 559 560 0
-562 112 0
-562 -561 0
562 -112 561 0
-563 -558 0
-563 -562 0
563 558 562 0
-564 -110 0
-564 -563 0
564 110 563 0
-565 -111 0
-565 -561 0
565 111 561 0
-566 111 0
-566 -563 0
566 -111 563 0
-567 -565 0
-567 -566 0
567 565 566 0
-568 110 0
-568 -567 0
568 -110 567 0
-569 -564 0
-569 -568 0
569 564 568 0
-570 -108 0
-570 -569 0
570 108 569 0
-571 -109 0
-571 -567 0
571 109 567 0
-572 109 0
-572 -569 0
572 -109 569 0
-573 -571 0
-573 -572 0
573 571 572 0
-574 108 0
-574 -573 0
574 -108 573 0
-575 -570 0
-575 -574 0
575 570 574 0
-576 -106 0
-576 -575 0
576 106 575 0
-577 -107 0
-577 -573 0
577 107 573 0
-578 107 0
-578 -575 0
578 -107 575 0
-579 -577 0
-579 -578 0
579 577 578 0
-580 106 0
-580 -579 0
580 -106 579 0
-581 -576 0
-581 -580 0
581 576 580 0
-582 -104 0
-582 -581 0
582 104 581 0
-583 -105 0
-583 -579 0
583 105 579 0
-584 105 0
-584 -581 0
584 -105 581 0
-585 -583 0
-585 -584 0
585 583 584 0
-586 104 0
-586 -585 0
586 -104 585 0
-587 -582 0
-587 -586 0
587 582 586 0
-588 -102 0
-588 -587 0
588 102 587 0
-589 -103 0
-589 -585 0
589 103 585 0
-590 103 0
-590 -587 0
590 -103 587 0
-591 -589 0
-591 -590 0
591 589 590 0
-592 102 0
-592 -591 0
592 -102 591 0
-593 -588 0
-593 -592 0
593 588 592 0
-594 -100 0
-594 -593 0
594 100 593 0
-595 -101 0
-595 -591 0
595 101 591 0
-596 101 0
-596 -593 0
596 -101 593 0
-597 -595 0
-597 -596 0
597 595 596 0
-598 100 0
-598 -597 0
598 -100 597 0
-599 -594 0
-599 -598 0
599 594 598 0
-600 -98 0
-600 -599 0
600 98 599 0
-601 -99 0
-601 -597 0
601 99 597 0
-602 99 0
-602 -599 0
602 -99 599 0
-603 -601 0
-603 -602 0
603 601 602 0
-604 98 0
-604 -603 0
604 -98 603 0
-605 -600 0
-605 -604 0
605 600 604 0
-606 -96 0
-606 -605 0
606 96 605 0
-607 -97 0
-607 -603 0
607 97 603 0
-608 97 0
-608 -605 0
608 -97 605 0
-609 -607 0
-609 -608 0
609 607 608 0
-610 96 0
-610 -609 0
610 -96 609 0
-611 -606 0
-611 -610 0
611 606 610 0
-612 -94 0
-612 -611 0
612 94 611 0
-613 -95 0
-613 -609 0
613 95 609 0
-614 95 0
-614 -611 0
614 -95 611 0
-615 -613 0
-615 -614 0
615 613 614 0
-616 94 0
-616 -615 0
616 -94 615 0
-617 -612 0
-617 -616 0
617 612 616 0
-618 -92 0
-618 -617 0
618 92 617 0
-619 -93 0
-619 -615 0
619 93 615 0
-620 93 0
-620 -617 0
620 -93 617 0
-621 -619 0
-621 -620 0
621 619 620 0
-622 92 0
-622 -621 0
622 -92 621 0
-623 -618 0
-623 -622 0
623 618 622 0
-624 -90 0
-624 -623 0
624 90 623 0
-625 -91 0
-625 -621 0
625 91 621 0
-626 91 0
-626 -623 0
626 -91 623 0
-627 -625 0
-627 -626 0
627 625 626 0
-628 90 0
-628 -627 0
628 -90 627 0
-629 -624 0
-629 -628 0
629 624 628 0
-630 -88 0
-630 -629 0
630 88 629 0
-631 -89 0
-631 -627 0
631 89 627 0
-632 89 0
-632 -629 0
632 -89 629 0
-633 -631 0
-633 -632 0
633 631 632 0
-634 88 0
-634 -633 0
634 -88 633 0
-635 -630 0
-635 -634 0
635 630 634 0
-636 -86 0
-636 -635 0
636 86 635 0
-637 -87 0
-637 -633 0
637 87 633 0
-638 87 0
-638 -635 0
638 -87 635 0
-639 -637 0
-639 -638 0
639 637 638 0
-640 86 0
-640 -639 0
640 -86 639 0
-641 -636 0
-641 -640 0
641 636 640 0
-642 -84 0
-642 -641 0
642 84 641 0
-643 -85 0
-643 -639 0
643 85 639 0
-644 85 0
-644 -641 0
644 -85 641 0
-645 -643 0
-645 -644 0
645 643 644 0
-646 84 0
-646 -645 0
646 -84 645 0
-647 -642 0
-647 -646 0
647 642 646 0
-648 -82 0
-648 -647 0
648 82 647 0
-649 -83 0
-649 -645 0
649 83 645 0
-650 83 0
-650 -647 0
650 -83 647 0
-651 -649 0
-651 -650 0
651 649 650 0
-652 82 0
-652 -651 0
652 -82 651 0
-653 -648 0
-653 -652 0
653 648 652 0
-654 -80 0
-654 -653 0
654 80 653 0
-655 -81 0
-655 -651 0
655 81 651 0
-656 81 0
-656 -653 0
656 -81 653 0
-657 -655 0
-657 -656 0
657 655 656 0
-658 80 0
-658 -657 0
658 -80 657 0
-659 -654 0
-659 -658 0
659 654 658 0
-660 -78 0
-660 -659 0
660 78 659 0
-661 -79 0
-661 -657 0
661 79 657 0
-662 79 0
-662 -659 0
662 -79 659 0
-663 -661 0
-663 -662 0
663 661 662 0
-664 78 0
-664 -663 0
664 -78 663 0
-665 -660 0
-665 -664 0
665 660 664 0
-666 -76 0
-666 -665 0
666 76 665 0
-667 -77 0
-667 -663 0
667 77 663 0
-668 77 0
-668 -665 0
668 -77 665 0
-669 -667 0
-669 -668 0
669 667 668 0
-670 76 0
-670 -669 0
670 -76 669 0
-671 -666 0
-671 -670 0
671 666 670 0
-672 -74 0
-672 -671 0
672 74 671 0
-673 -75 0
-673 -669 0
673 75 669 0
-674 75 0
-674 -671 0
674 -75 671 0
-675 -673 0
-675 -674 0
675 673 674 0
-676 74 0
-676 -675 0
676 -74 675 0
-677 -672 0
-677 -676 0
677 672 676 0
-678 -72 0
-678 -677 0
678 72 677 0
-679 -73 0
-679 -675 0
679 73 675 0
-680 73 0
-680 -677 0
680 -73 677 0
-681 -679 0
-681 -680 0
681 679 680 0
-682 72 0
-682 -681 0
682 -72 681 0
-683 -678 0
-683 -682 0
683 678 682 0
-684 -70 0
-684 -683 0
684 70 683 0
-685 -71 0
-685 -681 0
685 71 681 0
-686 71 0
-686 -683 0
686 -71 683 0
-687 -685 0
-687 -686 0
687 685 686 0
-688 70 0
-688 -687 0
688 -70 687 0
-689 -684 0
-689 -688 0
689 684 688 0
-690 -68 0
-690 -689 0
690 68 689 0
-691 -69 0
-691 -687 0
691 69 687 0
-692 69 0
-692 -689 0
692 -69 689 0
-693 -691 0
-693 -692 0
693 691 692 0
-694 68 0
-694 -693 0
694 -68 693 0
-695 -690 0
-695 -694 0
695 690 694 0
-696 -66 0
-696 -695 0
696 66 695 0
-697 -67 0
-697 -693 0
697 67 693 0
-698 67 0
-698 -695 0
698 -67 695 0
-699 -697 0
-699 -698 0
699 697 698 0
-700 66 0
-700 -699 0
700 -66 699 0
-701 -696 0
-701 -700 0
701 696 700 0
-702 -64 0
-702 -701 0
702 64 701 0
-703 -65 0
-703 -699 0
703 65 699 0
-704 65 0
-704 -701 0
704 -65 701 0
-705 -703 0
-705 -704 0
705 703 704 0
-706 64 0
-706 -705 0
706 -64 705 0
-707 -702 0
-707 -706 0
707 702 706 0
-708 -62 0
-708 -707 0
708 62 707 0
-709 -63 0
-709 -705 0
709 63 705 0
-710 63 0
-710 -707 0
710 -63 707 0
-711 -709 0
-711 -710 0
711 709 710 0
-712 62 0
-712 -711 0
712 -62 711 0
-713 -708 0
-713 -712 0
713 708 712 0
-714 -60 0
-714 -713 0
714 60 713 0
-715 -61 0
-715 -711 0
715 61 711 0
-716 61 0
-716 -713 0
716 -61 713 0
-717 -715 0
-717 -716 0
717 715 716 0
-718 60 0
-718 -717 0
718 -60 717 0
-719 -714 0
-719 -718 0
719 714 718 0
-720 -58 0
-720 -719 0
720 58 719 0
-721 -59 0
-721 -717 0
721 59 717 0
-722 59 0
-722 -719 0
722 -59 719 0
-723 -721 0
-723 -722 0
723 721 722 0
-724 58 0
-724 -723 0
724 -58 723 0
-725 -720 0
-725 -724 0
725 720 724 0
-726 -56 0
-726 -725 0
726 56 725 0
-727 -57 0
-727 -723 0
727 57 723 0
-728 57 0
-728 -725 0
728 -57 725 0
-729 -727 0
-729 -728 0
729 727 728 0
-730 56 0
-730 -729 0
730 -56 729 0
-731 -726 0
-731 -730 0
731 726 730 0
-732 -54 0
-732 -731 0
732 54 731 0
-733 -55 0
-733 -729 0
733 55 729 0
-734 55 0
-734 -731 0
734 -55 731 0
-735 -733 0
-735 -734 0
735 733 734 0
-736 54 0
-736 -735 0
736 -54 735 0
-737 -732 0
-737 -736 0
737 732 736 0
-738 -52 0
-738 -737 0
738 52 737 0
-739 -53 0
-739 -735 0
739 53 735 0
-740 53 0
-740 -737 0
740 -53 737 0
-741 -739 0
-741 -740 0
741 739 740 0
-742 52 0
-742 -741 0
742 -52 741 0
-743 -738 0
-743 -742 0
743 738 742 0
-744 -50 0
-744 -743 0
744 50 743 0
-745 -51 0
-745 -741 0
745 51 741 0
-746 51 0
-746 -743 0
746 -51 743 0
-747 -745 0
-747 -746 0
747 745 746 0
-748 50 0
-748 -747 0
748 -50 747 0
-749 -744 0
-749 -748 0
749 744 748 0
-750 -48 0
-750 -749 0
750 48 749 0
-751 -49 0
-751 -747 0
751 49 747 0
-752 49 0
-752 -749 0
752 -49 749 0
-753 -751 0
-753 -752 0
753 751 752 0
-754 48 0
-754 -753 0
754 -48 753 0
-755 -750 0
-755 -754 0
755 750 754 0
-756 -46 0
-756 -755 0
756 46 755 0
-757 -47 0
-757 -753 0
757 47 753 0
-758 47 0
-758 -755 0
758 -47 755 0
-759 -757 0
-759 -758 0
759 757 758 0
-760 46 0
-760 -759 0
760 -46 759 0
-761 -756 0
-761 -760 0
761 756 760 0
-762 -44 0
-762 -761 0
762 44 761 0
-763 -45 0
-763 -759 0
763 45 759 0
-764 45 0
-764 -761 0
764 -45 761 0
-765 -763 0
-765 -764 0
765 763 764 0
-766 44 0
-766 -765 0
766 -44 765 0
-767 -762 0
-767 -766 0
767 762 766 0
-768 -42 0
-768 -767 0
768 42 767 0
-769 -43 0
-769 -765 0
769 43 765 0
-770 43 0
-770 -767 0
770 -43 767 0
-771 -769 0
-771 -770 0
771 769 770 0
-772 42 0
-772 -771 0
772 -42 771 0
-773 -768 0
-773 -772 0
773 768 772 0
-774 -40 0
-774 -773 0
774 40 773 0
-775 -41 0
-775 -771 0
775 41 771 0
-776 41 0
-776 -773 0
776 -41 773 0
-777 -775 0
-777 -776 0
777 775 776 0
-778 40 0
-778 -777 0
778 -40 777 0
-779 -774 0
-779 -778 0
779 774 778 0
-780 -38 0
-780 -779 0
780 38 779 0
-781 -39 0
-781 -777 0
781 39 777 0
-782 39 0
-782 -779 0
782 -39 779 0
-783 -781 0
-783 -782 0
783 781 782 0
-784 38 0
-784 -783 0
784 -38 783 0
-785 -780 0
-785 -784 0
785 780 784 0
-786 -36 0
-786 -785 0
786 36 785 0
-787 -37 0
-787 -783 0
787 37 783 0
-788 37 0
-788 -785 0
788 -37 785 0
-789 -787 0
-789 -788 0
789 787 788 0
-790 36 0
-790 -789 0
790 -36 789 0
-791 -786 0
-791 -790 0
791 786 790 0
-792 -34 0
-792 -791 0
792 34 791 0
-793 -35 0
-793 -789 0
793 35 789 0
-794 35 0
-794 -791 0
794 -35 791 0
-795 -793 0
-795 -794 0
795 793 794 0
-796 34 0
-796 -795 0
796 -34 795 0
-797 -792 0
-797 -796 0
797 792 796 0
-798 -32 0
-798 -797 0
798 32 797 0
-799 -33 0
-799 -795 0
799 33 795 0
-800 33 0
-800 -797 0
800 -33 797 0
-801 -799 0
-801 -800 0
801 799 800 0
-802 32 0
-802 -801 0
802 -32 801 0
-803 -798 0
-803 -802 0
803 798 802 0
-804 -30 0
-804 -803 0
804 30 803 0
-805 -31 0
-805 -801 0
805 31 801 0
-806 31 0
-806 -803 0
806 -31 803 0
-807 -805 0
-807 -806 0
807 805 806 0
-808 30 0
-808 -807 0
808 -30 807 0
-809 -804 0
-809 -808 0
809 804 808 0
-810 -28 0
-810 -809 0
810 28 809 0
-811 -29 0
-811 -807 0
811 29 807 0
-812 29 0
-812 -809 0
812 -29 809 0
-813 -811 0
-813 -812 0
813 811 812 0
-814 28 0
-814 -813 0
814 -28 813 0
-815 -810 0
-815 -814 0
815 810 814 0
-816 -26 0
-816 -815 0
816 26 815 0
-817 -27 0
-817 -813 0
817 27 813 0
-818 27 0
-818 -815 0
818 -27 815 0
-819 -817 0
-819 -818 0
819 817 818 0
-820 26 0
-820 -819 0
820 -26 819 0
-821 -816 0
-821 -820 0
821 816 820 0
-822 -24 0
-822 -821 0
822 24 821 0
-823 -25 0
-823 -819 0
823 25 819 0
-824 25 0
-824 -821 0
824 -25 821 0
-825 -823 0
-825 -824 0
825 823 824 0
-826 24 0
-826 -825 0
826 -24 825 0
-827 -822 0
-827 -826 0
827 822 826 0
-828 -22 0
-828 -827 0
828 22 827 0
-829 -23 0
-829 -825 0
829 23 825 0
-830 23 0
-830 -827 0
830 -23 827 0
-831 -829 0
-831 -830 0
831 829 830 0
-832 22 0
-832 -831 0
832 -22 831 0
-833 -828 0
-833 -832 0
833 828 832 0
-834 -20 0
-834 -833 0
834 20 833 0
-835 -21 0
-835 -831 0
835 21 831 0
-836 21 0
-836 -833 0
836 -21 833 0
-837 -835 0
-837 -836 0
837 835 836 0
-838 20 0
-838 -837 0
838 -20 837 0
-839 -834 0
-839 -838 0
839 834 838 0
-840 -18 0
-840 -839 0
840 18 839 0
-841 -19 0
-841 -837 0
841 19 837 0
-842 19 0
-842 -839 0
842 -19 839 0
-843 -841 0
-843 -842 0
843 841 842 0
-844 18 0
-844 -843 0
844 -18 843 0
-845 -840 0
-845 -844 0
845 840 844 0
-846 -16 0
-846 -845 0
846 16 845 0
-847 -17 0
-847 -843 0
847 17 843 0
-848 17 0
-848 -845 0
848 -17 845 0
-849 -847 0
-849 -848 0
849 847 848 0
-850 16 0
-850 -849 0
850 -16 849 0
-851 -846 0
-851 -850 0
851 846 850 0
-852 -14 0
-852 -851 0
852 14 851 0
-853 -15 0
-853 -849 0
853 15 849 0
-854 15 0
-854 -851 0
854 -15 851 0
-855 -853 0
-855 -854 0
855 853 854 0
-856 14 0
-856 -855 0
856 -14 855 0
-857 -852 0
-857 -856 0
857 852 856 0
-858 -12 0
-858 -857 0
858 12 857 0
-859 -13 0
-859 -855 0
859 13 855 0
-860 13 0
-860 -857 0
860 -13 857 0
-861 -859 0
-861 -860 0
861 859 860 0
-862 12 0
-862 -861 0
862 -12 861 0
-863 -858 0
-863 -862 0
863 858 862 0
-864 -10 0
-864 -863 0
864 10 863 0
-865 -11 0
-865 -861 0
865 11 861 0
-866 11 0
-866 -863 0
866 -11 863 0
-867 -865 0
-867 -866 0
867 865 866 0
-868 10 0
-868 -867 0
868 -10 867 0
-869 -864 0
-869 -868 0
869 864 868 0
-870 -8 0
-870 -869 0
870 8 869 0
-871 -9 0
-871 -867 0
871 9 867 0
-872 9 0
-872 -869 0
872 -9 869 0
-873 -871 0
-873 -872 0
873 871 872 0
-874 8 0
-874 -873 0
874 -8 873 0
-875 -870 0
-875 -874 0
875 870 874 0
-876 -6 0
-876 -875 0
876 6 875 0
-877 -7 0
-877 -873 0
877 7 873 0
-878 7 0
-878 -875 0
878 -7 875 0
-879 -877 0
-879 -878 0
879 877 878 0
-880 6 0
-880 -879 0
880 -6 879 0
-881 -876 0
-881 -880 0
881 876 880 0
-882 -4 0
-882 -881 0
882 4 881 0
-883 -5 0
-883 -879 0
883 5 879 0
-884 5 0
-884 -881 0
884 -5 881 0
-885 -883 0
-885 -884 0
885 883 884 0
-886 4 0
-886 -885 0
886 -4 885 0
-887 -882 0
-887 -886 0
887 882 886 0
-888 2 0
-888 -3 0
888 -2 3 0
-889 887 0
-889 -888 0
889 -887 888 0
-890 885 0
-890 888 0
890 -885 -888 0
-891 -889 0
-891 -890 0
891 889 890 0
-892 122 0
-892 140 0
892 -122 -140 0
-893 138 0
-893 -892 0
893 -138 892 0
-894 137 0
-894 -893 0
894 -137 893 0
-895 -121 0
-895 -894 0
895 121 894 0
-896 138 0
-896 -140 0
896 -138 140 0
-897 137 0
-897 -896 0
897 -137 896 0
-898 121 0
-898 -897 0
898 -121 897 0
-899 -895 0
-899 -898 0
899 895 898 0
-900 -146 0
-900 899 0
900 146 -899 0
-901 146 0
-901 897 0
901 -146 -897 0
-902 -900 0
-902 -901 0
902 900 901 0
-903 -117 0
-903 -118 0
903 117 118 0
-904 902 0
-904 -903 0
904 -902 903 0
-905 -899 0
-905 903 0
905 899 -903 0
-906 -904 0
-906 -905 0
906 904 905 0
-907 -144 0
-907 906 0
907 144 -906 0
-908 144 0
-908 -902 0
908 -144 902 0
-909 -907 0
-909 -908 0
909 907 908 0
-910 -113 0
-910 -114 0
910 113 114 0
-911 909 0
-911 -910 0
911 -909 910 0
-912 -906 0
-912 910 0
912 906 -910 0
-913 -911 0
-913 -912 0
913 911 912 0
-914 -156 0
-914 913 0
914 156 -913 0
-915 156 0
-915 -909 0
915 -156 909 0
-916 -914 0
-916 -915 0
916 914 915 0
-917 -109 0
-917 -110 0
917 109 110 0
-918 916 0
-918 -917 0
918 -916 917 0
-919 -913 0
-919 917 0
919 913 -917 0
-920 -918 0
-920 -919 0
920 918 919 0
-921 -400 0
-921 920 0
921 400 -920 0
-922 400 0
-922 -916 0
922 -400 916 0
-923 -921 0
-923 -922 0
923 921 922 0
-924 -105 0
-924 -106 0
924 105 106 0
-925 923 0
-925 -924 0
925 -923 924 0
-926 -920 0
-926 924 0
926 920 -924 0
-927 -925 0
-927 -926 0
927 925 926 0
-928 -152 0
-928 927 0
928 152 -927 0
-929 152 0
-929 -923 0
929 -152 923 0
-930 -928 0
-930 -929 0
930 928 929 0
-931 -101 0
-931 -102 0
931 101 102 0
-932 930 0
-932 -931 0
932 -930 931 0
-933 -927 0
-933 931 0
933 927 -931 0
-934 -932 0
-934 -933 0
934 932 933 0
-935 -409 0
-935 934 0
935 409 -934 0
-936 409 0
-936 -930 0
936 -409 930 0
-937 -935 0
-937 -936 0
937 935 936 0
-938 -97 0
-938 -98 0
938 97 98 0
-939 937 0
-939 -938 0
939 -937 938 0
-940 -934 0
-940 938 0
940 934 -938 0
-941 -939 0
-941 -940 0
941 939 940 0
-942 -176 0
-942 941 0
942 176 -941 0
-943 176 0
-943 -937 0
943 -176 937 0
-944 -942 0
-944 -943 0
944 942 943 0
-945 -93 0
-945 -94 0
945 93 94 0
-946 944 0
-946 -945 0
946 -944 945 0
-947 -941 0
-947 945 0
947 941 -945 0
-948 -946 0
-948 -947 0
948 946 947 0
-949 -418 0
-949 948 0
949 418 -948 0
-950 418 0
-950 -944 0
950 -418 944 0
-951 -949 0
-951 -950 0
951 949 950 0
-952 -89 0
-952 -90 0
952 89 90 0
-953 951 0
-953 -952 0
953 -951 952 0
-954 -948 0
-954 952 0
954 948 -952 0
-955 -953 0
-955 -954 0
955 953 954 0
-956 -322 0
-956 955 0
956 322 -955 0
-957 322 0
-957 -951 0
957 -322 951 0
-958 -956 0
-958 -957 0
958 956 957 0
-959 -85 0
-959 -86 0
959 85 86 0
-960 958 0
-960 -959 0
960 -958 959 0
-961 -955 0
-961 959 0
961 955 -959 0
-962 -960 0
-962 -961 0
962 960 961 0
-963 -427 0
-963 962 0
963 427 -962 0
-964 427 0
-964 -958 0
964 -427 958 0
-965 -963 0
-965 -964 0
965 963 964 0
-966 -81 0
-966 -82 0
966 81 82 0
-967 965 0
-967 -966 0
967 -965 966 0
-968 -962 0
-968 966 0
968 962 -966 0
-969 -967 0
-969 -968 0
969 967 968 0
-970 -168 0
-970 969 0
970 168 -969 0
-971 168 0
-971 -965 0
971 -168 965 0
-972 -970 0
-972 -971 0
972 970 971 0
-973 -77 0
-973 -78 0
973 77 78 0
-974 972 0
-974 -973 0
974 -972 973 0
-975 -969 0
-975 973 0
975 969 -973 0
-976 -974 0
-976 -975 0
976 974 975 0
-977 -436 0
-977 976 0
977 436 -976 0
-978 436 0
-978 -972 0
978 -436 972 0
-979 -977 0
-979 -978 0
979 977 978 0
-980 -73 0
-980 -74 0
980 73 74 0
-981 979 0
-981 -980 0
981 -979 980 0
-982 -976 0
-982 980 0
982 976 -980 0
-983 -981 0
-983 -982 0
983 981 982 0
-984 -335 0
-984 983 0
984 335 -983 0
-985 335 0
-985 -979 0
985 -335 979 0
-986 -984 0
-986 -985 0
986 984 985 0
-987 -69 0
-987 -70 0
987 69 70 0
-988 986 0
-988 -987 0
988 -986 987 0
-989 -983 0
-989 987 0
989 983 -987 0
-990 -988 0
-990 -989 0
990 988 989 0
-991 -445 0
-991 990 0
991 445 -990 0
-992 445 0
-992 -986 0
992 -445 986 0
-993 -991 0
-993 -992 0
993 991 992 0
-994 -65 0
-994 -66 0
994 65 66 0
-995 993 0
-995 -994 0
995 -993 994 0
-996 -990 0
-996 994 0
996 990 -994 0
-997 -995 0
-997 -996 0
997 995 996 0
-998 -222 0
-998 997 0
998 222 -997 0
-999 222 0
-999 -993 0
999 -222 993 0
-1000 -998 0
-1000 -999 0
1000 998 999 0
-1001 -61 0
-1001 -62 0
1001 61 62 0
-1002 1000 0
-1002 -1001 0
1002 -1000 1001 0
-1003 -997 0
-1003 1001 0
1003 997 -1001 0
-1004 -1002 0
-1004 -1003 0
1004 1002 1003 0
-1005 -454 0
-1005 1004 0
1005 454 -1004 0
-1006 454 0
-1006 -1000 0
1006 -454 1000 0
-1007 -1005 0
-1007 -1006 0
1007 1005 1006 0
-1008 -57 0
-1008 -58 0
1008 57 58 0
-1009 1007 0
-1009 -1008 0
1009 -1007 1008 0
-1010 -1004 0
-1010 1008 0
1010 1004 -1008 0
-1011 -1009 0
-1011 -1010 0
1011 1009 1010 0
-1012 -348 0
-1012 1011 0
1012 348 -1011 0
-1013 348 0
-1013 -1007 0
1013 -348 1007 0
-1014 -1012 0
-1014 -1013 0
1014 1012 1013 0
-1015 -53 0
-1015 -54 0
1015 53 54 0
-1016 1014 0
-1016 -1015 0
1016 -1014 1015 0
-1017 -1011 0
-1017 1015 0
1017 1011 -1015 0
-1018 -1016 0
-1018 -1017 0
1018 1016 1017 0
-1019 -463 0
-1019 1018 0
1019 463 -1018 0
-1020 463 0
-1020 -1014 0
1020 -463 1014 0
-1021 -1019 0
-1021 -1020 0
1021 1019 1020 0
-1022 -49 0
-1022 -50 0
1022 49 50 0
-1023 1021 0
-1023 -1022 0
1023 -1021 1022 0
-1024 -1018 0
-1024 1022 0
1024 1018 -1022 0
-1025 -1023 0
-1025 -1024 0
1025 1023 1024 0
-1026 -284 0
-1026 1025 0
1026 284 -1025 0
-1027 284 0
-1027 -1021 0
1027 -284 1021 0
-1028 -1026 0
-1028 -1027 0
1028 1026 1027 0
-1029 -45 0
-1029 -46 0
1029 45 46 0
-1030 1028 0
-1030 -1029 0
1030 -1028 1029 0
-1031 -1025 0
-1031 1029 0
1031 1025 -1029 0
-1032 -1030 0
-1032 -1031 0
1032 1030 1031 0
-1033 -472 0
-1033 1032 0
1033 472 -1032 0
-1034 472 0
-1034 -1028 0
1034 -472 1028 0
-1035 -1033 0
-1035 -1034 0
1035 1033 1034 0
-1036 -41 0
-1036 -42 0
1036 41 42 0
-1037 1035 0
-1037 -1036 0
1037 -1035 1036 0
-1038 -1032 0
-1038 1036 0
1038 1032 -1036 0
-1039 -1037 0
-1039 -1038 0
1039 1037 1038 0
-1040 -361 0
-1040 1039 0
1040 361 -1039 0
-1041 361 0
-1041 -1035 0
1041 -361 1035 0
-1042 -1040 0
-1042 -1041 0
1042 1040 1041 0
-1043 -37 0
-1043 -38 0
1043 37 38 0
-1044 1042 0
-1044 -1043 0
1044 -1042 1043 0
-1045 -1039 0
-1045 1043 0
1045 1039 -1043 0
-1046 -1044 0
-1046 -1045 0
1046 1044 1045 0
-1047 -481 0
-1047 1046 0
1047 481 -1046 0
-1048 481 0
-1048 -1042 0
1048 -481 1042 0
-1049 -1047 0
-1049 -1048 0
1049 1047 1048 0
-1050 -33 0
-1050 -34 0
1050 33 34 0
-1051 1049 0
-1051 -1050 0
1051 -1049 1050 0
-1052 -1046 0
-1052 1050 0
1052 1046 -1050 0
-1053 -1051 0
-1053 -1052 0
1053 1051 1052 0
-1054 -207 0
-1054 1053 0
1054 207 -1053 0
-1055 207 0
-1055 -1049 0
1055 -207 1049 0
-1056 -1054 0
-1056 -1055 0
1056 1054 1055 0
-1057 -29 0
-1057 -30 0
1057 29 30 0
-1058 1056 0
-1058 -1057 0
1058 -1056 1057 0
-1059 -1053 0
-1059 1057 0
1059 1053 -1057 0
-1060 -1058 0
-1060 -1059 0
1060 1058 1059 0
-1061 -490 0
-1061 1060 0
1061 490 -1060 0
-1062 490 0
-1062 -1056 0
1062 -490 1056 0
-1063 -1061 0
-1063 -1062 0
1063 1061 1062 0
-1064 -25 0
-1064 -26 0
1064 25 26 0
-1065 1063 0
-1065 -1064 0
1065 -1063 1064 0
-1066 -1060 0
-1066 1064 0
1066 1060 -1064 0
-1067 -1065 0
-1067 -1066 0
1067 1065 1066 0
-1068 -374 0
-1068 1067 0
1068 374 -1067 0
-1069 374 0
-1069 -1063 0
1069 -374 1063 0
-1070 -1068 0
-1070 -1069 0
1070 1068 1069 0
-1071 -21 0
-1071 -22 0
1071 21 22 0
-1072 1070 0
-1072 -1071 0
1072 -1070 1071 0
-1073 -1067 0
-1073 1071 0
1073 1067 -1071 0
-1074 -1072 0
-1074 -1073 0
1074 1072 1073 0
-1075 -499 0
-1075 1074 0
1075 499 -1074 0
-1076 499 0
-1076 -1070 0
1076 -499 1070 0
-1077 -1075 0
-1077 -1076 0
1077 1075 1076 0
-1078 -17 0
-1078 -18 0
1078 17 18 0
-1079 1077 0
-1079 -1078 0
1079 -1077 1078 0
-1080 -1074 0
-1080 1078 0
1080 1074 -1078 0
-1081 -1079 0
-1081 -1080 0
1081 1079 1080 0
-1082 -129 0
-1082 1081 0
1082 129 -1081 0
-1083 129 0
-1083 -1077 0
1083 -129 1077 0
-1084 -1082 0
-1084 -1083 0
1084 1082 1083 0
-1085 -13 0
-1085 -14 0
1085 13 14 0
-1086 1084 0
-1086 -1085 0
1086 -1084 1085 0
-1087 -1081 0
-1087 1085 0
1087 1081 -1085 0
-1088 -1086 0
-1088 -1087 0
1088 1086 1087 0
-1089 -508 0
-1089 1088 0
1089 508 -1088 0
-1090 508 0
-1090 -1084 0
1090 -508 1084 0
-1091 -1089 0
-1091 -1090 0
1091 1089 1090 0
-1092 -9 0
-1092 -10 0
1092 9 10 0
-1093 1091 0
-1093 -1092 0
1093 -1091 1092 0
-1094 -1088 0
-1094 1092 0
1094 1088 -1092 0
-1095 -1093 0
-1095 -1094 0
1095 1093 1094 0
-1096 -204 0
-1096 1095 0
1096 204 -1095 0
-1097 204 0
-1097 -1091 0
1097 -204 1091 0
-1098 -1096 0
-1098 -1097 0
1098 1096 1097 0
-1099 -5 0
-1099 -6 0
1099 5 6 0
-1100 1098 0
-1100 -1099 0
1100 -1098 1099 0
-1101 -1095 0
-1101 1099 0
1101 1095 -1099 0
-1102 -1100 0
-1102 -1101 0
1102 1100 1101 0
-1103 -3 0
-1103 -4 0
1103 3 4 0
-1104 1102 0
-1104 -1103 0
1104 -1102 1103 0
-1105 -1098 0
-1105 1103 0
1105 1098 -1103 0
-1106 -1104 0
-1106 -1105 0
1106 1104 1105 0
-1107 -891 0
-1107 -1106 0
1107 891 1106 0
-1108 516 0
-1108 1107 0
1108 -516 -1107 0
-1109 386 0
-1109 1108 0
1109 -386 -1108 0
-1110 304 0
-1110 1109 0
1110 -304 -1109 0
-1111 258 0
-1111 1110 0
1111 -258 -1110 0
-1112 199 0
-1112 1111 0
1112 -199 -1111 0
-1113 256 0
-1113 1112 0
1113 -256 -1112 0
-1113 0
